Cars = 1..200;
Options = 1..5;
Classes = 1..30;
sequenceMinCapacity = [0, 0, 0, 0, 0];
sequenceMaxCapacity = [1, 2, 1, 2, 1];
sequenceSize = [2, 3, 3, 5, 5];
numOrdered = [9, 5, 9, 2, 31, 8, 2, 19, 1, 5, 28, 5, 1, 7, 3, 6, 1, 8, 2, 7, 2, 12, 4, 1, 1, 6, 1, 1, 1, 12];
classHasOption = [|false,  true,  true, false, false
                  | true, false, false, false,  true
                  | true, false, false,  true, false
                  | true,  true, false,  true,  true
                  |false,  true, false, false, false
                  |false, false,  true, false, false
                  |false,  true, false,  true,  true
                  |false,  true, false,  true, false
                  | true,  true,  true,  true, false
                  |false, false,  true,  true, false
                  | true,  true, false, false, false
                  | true,  true, false, false,  true
                  |false, false,  true,  true,  true
                  | true, false,  true, false, false
                  | true, false,  true,  true, false
                  |false, false, false, false,  true
                  | true,  true,  true, false,  true
                  | true,  true,  true, false, false
                  |false, false, false,  true,  true
                  |false,  true,  true,  true, false
                  |false, false,  true, false,  true
                  | true, false, false, false, false
                  |false,  true, false, false,  true
                  | true, false,  true, false, false
                  |false,  true,  true, false, false
                  | true, false, false,  true, false
                  | true, false, false, false, false
                  |false, false, false, false, false
                  |false, false, false, false, false
                  |false, false, false, false, false|];
optionOrdering = [1, 3, 5, 2, 4];
